(set-info :smt-lib-version 2.6)
(set-logic QF_ALIA)
(set-info :notes "Adapted for Array Sum evaluation.
Base file: qlock.induction.18.smt2")
(set-info :source |
Unbounded version of the queue lock algorithm.
|)
(set-info :category "industrial")
(declare-fun x_0 () (Array Int Int))
(declare-fun x_1 () Int)
(declare-fun x_2 () Int)
(declare-fun x_3 () (Array Int Int))
(declare-fun x_4 () (Array Int Int))
(declare-fun x_5 () (Array Int Int))
(declare-fun x_6 () (Array Int Int))
(declare-fun x_7 () (Array Int Int))
(declare-fun x_8 () (Array Int Int))
(declare-fun x_9 () (Array Int Int))
(declare-fun x_10 () (Array Int Int))
(declare-fun x_11 () (Array Int Int))
(declare-fun x_12 () (Array Int Int))
(declare-fun x_13 () (Array Int Int))
(declare-fun x_14 () (Array Int Int))
(declare-fun x_15 () (Array Int Int))
(declare-fun x_16 () (Array Int Int))
(declare-fun x_17 () (Array Int Int))
(declare-fun x_18 () (Array Int Int))
(declare-fun x_19 () (Array Int Int))
(declare-fun x_20 () (Array Int Int))
(declare-fun x_21 () Int)
(declare-fun x_22 () Int)
(declare-fun x_23 () (Array Int Int))
(declare-fun x_24 () Int)
(declare-fun x_25 () Bool)
(declare-fun x_26 () Bool)
(declare-fun x_27 () Int)
(declare-fun x_28 () Int)
(declare-fun x_29 () Int)
(declare-fun x_30 () Int)
(declare-fun x_31 () Int)
(declare-fun x_32 () Int)
(declare-fun x_33 () Int)
(declare-fun x_34 () Int)
(declare-fun x_35 () Int)
(declare-fun x_36 () Int)
(declare-fun x_37 () Int)
(declare-fun x_38 () Int)
(declare-fun x_39 () (Array Int Int))
(declare-fun x_40 () Int)
(declare-fun x_41 () Bool)
(declare-fun x_42 () Int)
(declare-fun x_43 () Int)
(declare-fun x_44 () Int)
(declare-fun x_45 () Int)
(declare-fun x_46 () Int)
(declare-fun x_47 () Int)
(declare-fun x_48 () Int)
(declare-fun x_49 () Int)
(declare-fun x_50 () Int)
(declare-fun x_51 () Int)
(declare-fun x_52 () (Array Int Int))
(declare-fun x_53 () Int)
(declare-fun x_54 () Bool)
(declare-fun x_55 () Int)
(declare-fun x_56 () Int)
(declare-fun x_57 () Int)
(declare-fun x_58 () Int)
(declare-fun x_59 () Int)
(declare-fun x_60 () Int)
(declare-fun x_61 () Int)
(declare-fun x_62 () Int)
(declare-fun x_63 () Int)
(declare-fun x_64 () Int)
(declare-fun x_65 () (Array Int Int))
(declare-fun x_66 () Int)
(declare-fun x_67 () Bool)
(declare-fun x_68 () Int)
(declare-fun x_69 () Int)
(declare-fun x_70 () Int)
(declare-fun x_71 () Int)
(declare-fun x_72 () Int)
(declare-fun x_73 () Int)
(declare-fun x_74 () Int)
(declare-fun x_75 () Int)
(declare-fun x_76 () Int)
(declare-fun x_77 () Int)
(declare-fun x_78 () (Array Int Int))
(declare-fun x_79 () Int)
(declare-fun x_80 () Bool)
(declare-fun x_81 () Int)
(declare-fun x_82 () Int)
(declare-fun x_83 () Int)
(declare-fun x_84 () Int)
(declare-fun x_85 () Int)
(declare-fun x_86 () Int)
(declare-fun x_87 () Int)
(declare-fun x_88 () Int)
(declare-fun x_89 () Int)
(declare-fun x_90 () Int)
(declare-fun x_91 () (Array Int Int))
(declare-fun x_92 () Int)
(declare-fun x_93 () Bool)
(declare-fun x_94 () Int)
(declare-fun x_95 () Int)
(declare-fun x_96 () Int)
(declare-fun x_97 () Int)
(declare-fun x_98 () Int)
(declare-fun x_99 () Int)
(declare-fun x_100 () Int)
(declare-fun x_101 () Int)
(declare-fun x_102 () Int)
(declare-fun x_103 () Int)
(declare-fun x_104 () (Array Int Int))
(declare-fun x_105 () Int)
(declare-fun x_106 () Bool)
(declare-fun x_107 () Int)
(declare-fun x_108 () Int)
(declare-fun x_109 () Int)
(declare-fun x_110 () Int)
(declare-fun x_111 () Int)
(declare-fun x_112 () Int)
(declare-fun x_113 () Int)
(declare-fun x_114 () Int)
(declare-fun x_115 () Int)
(declare-fun x_116 () Int)
(declare-fun x_117 () (Array Int Int))
(declare-fun x_118 () Int)
(declare-fun x_119 () Bool)
(declare-fun x_120 () Int)
(declare-fun x_121 () Int)
(declare-fun x_122 () Int)
(declare-fun x_123 () Int)
(declare-fun x_124 () Int)
(declare-fun x_125 () Int)
(declare-fun x_126 () Int)
(declare-fun x_127 () Int)
(declare-fun x_128 () Int)
(declare-fun x_129 () Int)
(declare-fun x_130 () (Array Int Int))
(declare-fun x_131 () Int)
(declare-fun x_132 () Bool)
(declare-fun x_133 () Int)
(declare-fun x_134 () Int)
(declare-fun x_135 () Int)
(declare-fun x_136 () Int)
(declare-fun x_137 () Int)
(declare-fun x_138 () Int)
(declare-fun x_139 () Int)
(declare-fun x_140 () Int)
(declare-fun x_141 () Int)
(declare-fun x_142 () Int)
(declare-fun x_143 () (Array Int Int))
(declare-fun x_144 () Int)
(declare-fun x_145 () Bool)
(declare-fun x_146 () Int)
(declare-fun x_147 () Int)
(declare-fun x_148 () Int)
(declare-fun x_149 () Int)
(declare-fun x_150 () Int)
(declare-fun x_151 () Int)
(declare-fun x_152 () Int)
(declare-fun x_153 () Int)
(declare-fun x_154 () Int)
(declare-fun x_155 () Int)
(declare-fun x_156 () (Array Int Int))
(declare-fun x_157 () Int)
(declare-fun x_158 () Bool)
(declare-fun x_159 () Int)
(declare-fun x_160 () Int)
(declare-fun x_161 () Int)
(declare-fun x_162 () Int)
(declare-fun x_163 () Int)
(declare-fun x_164 () Int)
(declare-fun x_165 () Int)
(declare-fun x_166 () Int)
(declare-fun x_167 () Int)
(declare-fun x_168 () Int)
(declare-fun x_169 () (Array Int Int))
(declare-fun x_170 () Int)
(declare-fun x_171 () Bool)
(declare-fun x_172 () Int)
(declare-fun x_173 () Int)
(declare-fun x_174 () Int)
(declare-fun x_175 () Int)
(declare-fun x_176 () Int)
(declare-fun x_177 () Int)
(declare-fun x_178 () Int)
(declare-fun x_179 () Int)
(declare-fun x_180 () Int)
(declare-fun x_181 () Int)
(declare-fun x_182 () (Array Int Int))
(declare-fun x_183 () Int)
(declare-fun x_184 () Bool)
(declare-fun x_185 () Int)
(declare-fun x_186 () Int)
(declare-fun x_187 () Int)
(declare-fun x_188 () Int)
(declare-fun x_189 () Int)
(declare-fun x_190 () Int)
(declare-fun x_191 () Int)
(declare-fun x_192 () Int)
(declare-fun x_193 () Int)
(declare-fun x_194 () Int)
(declare-fun x_195 () (Array Int Int))
(declare-fun x_196 () Int)
(declare-fun x_197 () Bool)
(declare-fun x_198 () Int)
(declare-fun x_199 () Int)
(declare-fun x_200 () Int)
(declare-fun x_201 () Int)
(declare-fun x_202 () Int)
(declare-fun x_203 () Int)
(declare-fun x_204 () Int)
(declare-fun x_205 () Int)
(declare-fun x_206 () Int)
(declare-fun x_207 () Int)
(declare-fun x_208 () (Array Int Int))
(declare-fun x_209 () Int)
(declare-fun x_210 () Bool)
(declare-fun x_211 () Int)
(declare-fun x_212 () Int)
(declare-fun x_213 () Int)
(declare-fun x_214 () Int)
(declare-fun x_215 () Int)
(declare-fun x_216 () Int)
(declare-fun x_217 () Int)
(declare-fun x_218 () Int)
(declare-fun x_219 () Int)
(declare-fun x_220 () Int)
(declare-fun x_221 () (Array Int Int))
(declare-fun x_222 () Int)
(declare-fun x_223 () Bool)
(declare-fun x_224 () Int)
(declare-fun x_225 () Int)
(declare-fun x_226 () Int)
(declare-fun x_227 () Int)
(declare-fun x_228 () Int)
(declare-fun x_229 () Int)
(declare-fun x_230 () Int)
(declare-fun x_231 () Int)
(declare-fun x_232 () Int)
(declare-fun x_233 () Int)
(declare-fun x_234 () (Array Int Int))
(declare-fun x_235 () Int)
(declare-fun x_236 () Bool)
(declare-fun x_237 () Int)
(declare-fun x_238 () Int)
(declare-fun x_239 () Int)
(declare-fun x_240 () Int)
(declare-fun x_241 () Int)
(declare-fun x_242 () Int)
(declare-fun x_243 () Int)
(declare-fun x_244 () Int)
(declare-fun x_245 () Int)
(declare-fun x_246 () Int)
(declare-fun x_247 () (Array Int Int))
(declare-fun x_248 () Int)
(declare-fun x_249 () Bool)
(declare-fun x_250 () Int)
(declare-fun x_251 () Int)
(declare-fun x_252 () Int)
(declare-fun x_253 () Int)
(declare-fun x_254 () Int)
(declare-fun x_255 () (Array Int Int))
(declare-fun x_256 () Int)
(declare-fun x_257 () Int)
(declare-fun x_258 () Int)
(declare-fun x_259 () Int)
(declare-fun x_260 () Int)
(declare-fun x_261 () Int)
(declare-fun x_262 () Int)
(declare-fun x_263 () Int)
(declare-fun x_264 () Int)
(declare-fun x_265 () Int)
(declare-fun x_266 () Int)
(declare-fun x_267 () Int)
(declare-fun x_268 () Int)
(declare-fun x_269 () Int)
(declare-fun x_270 () Int)
(declare-fun x_271 () Int)
(declare-fun x_272 () Int)
(declare-fun x_273 () Int)
(declare-fun x_274 () Int)
(declare-fun x_275 () Int)
(declare-fun x_276 () Int)
(declare-fun x_277 () Int)
(declare-fun x_278 () Int)
(declare-fun x_279 () Int)
(declare-fun x_280 () Int)
(declare-fun x_281 () Int)
(declare-fun x_282 () Int)
(declare-fun x_283 () Int)
(declare-fun x_284 () Int)
(declare-fun x_285 () Int)
(declare-fun x_286 () Int)
(declare-fun x_287 () Int)
(declare-fun x_288 () Int)
(declare-fun x_289 () Int)
(declare-fun x_290 () Int)
(declare-fun x_291 () Int)
(declare-fun x_292 () Int)
(declare-fun x_293 () Int)
(declare-fun x_294 () Int)
(declare-fun x_295 () Int)
(declare-fun x_296 () Int)
(declare-fun x_297 () Int)
(declare-fun x_298 () Int)
(declare-fun x_299 () Int)
(declare-fun x_300 () Int)
(declare-fun x_301 () Int)
(declare-fun x_302 () Int)
(declare-fun x_303 () Int)
(declare-fun x_304 () Int)
(declare-fun x_305 () Int)
(declare-fun x_306 () Int)
(declare-fun x_307 () Int)
(declare-fun x_308 () Int)
(declare-fun x_309 () Int)
(declare-fun x_310 () Int)
(declare-fun x_311 () Int)
(declare-fun x_312 () Int)
(declare-fun x_313 () Int)
(declare-fun x_314 () Int)
(declare-fun x_315 () Int)
(declare-fun x_316 () Int)
(declare-fun x_317 () Int)
(declare-fun x_318 () Int)
(declare-fun x_319 () Int)
(declare-fun x_320 () Int)
(declare-fun x_321 () Int)
(declare-fun x_322 () Int)
(declare-fun x_323 () Int)
(declare-fun x_324 () Int)
(declare-fun x_325 () Int)
(declare-fun x_326 () Int)
(declare-fun x_327 () Int)
(declare-fun x_328 () Int)
(declare-fun x_329 () Int)
(declare-fun x_330 () Int)
(declare-fun x_331 () Int)
(declare-fun x_332 () Int)
(declare-fun x_333 () Int)
(declare-fun x_334 () Int)
(declare-fun x_335 () Int)
(declare-fun x_336 () Int)
(declare-fun x_337 () Int)
(declare-fun x_338 () Int)
(declare-fun x_339 () Int)
(declare-fun x_340 () Int)
(declare-fun x_341 () Int)
(declare-fun x_342 () Int)
(declare-fun x_343 () Int)
(declare-fun x_344 () Int)
(declare-fun x_345 () Int)
(declare-fun x_346 () Int)
(declare-fun x_347 () Int)
(declare-fun x_348 () Int)
(declare-fun x_349 () Int)
(declare-fun x_350 () Int)
(declare-fun x_351 () Int)
(declare-fun x_352 () Int)
(declare-fun x_353 () Int)
(declare-fun x_354 () Int)
(declare-fun x_355 () Int)
(declare-fun x_356 () Int)
(declare-fun x_357 () Int)
(declare-fun x_358 () Int)
(declare-fun x_359 () Int)
(declare-fun x_360 () Int)
(declare-fun x_361 () Int)
(declare-fun x_362 () Int)
(declare-fun x_363 () Int)
(declare-fun x_364 () Int)
(declare-fun x_365 () Int)
(declare-fun x_366 () Int)
(declare-fun x_367 () Int)
(declare-fun x_368 () Int)
(declare-fun x_369 () Int)
(assert (let ((?v_88 (= x_23 x_20)) (?v_85 (= x_24 x_21)) (?v_86 (= x_25 x_26)) (?v_89 (= x_27 x_28)) (?v_87 (not (<= x_28 x_21))) (?v_83 (= x_39 x_23)) (?v_80 (= x_40 x_24)) (?v_81 (= x_41 x_25)) (?v_84 (= x_42 x_27)) (?v_82 (not (<= x_27 x_24))) (?v_78 (= x_52 x_39)) (?v_75 (= x_53 x_40)) (?v_76 (= x_54 x_41)) (?v_79 (= x_55 x_42)) (?v_77 (not (<= x_42 x_40))) (?v_73 (= x_65 x_52)) (?v_70 (= x_66 x_53)) (?v_71 (= x_67 x_54)) (?v_74 (= x_68 x_55)) (?v_72 (not (<= x_55 x_53))) (?v_68 (= x_78 x_65)) (?v_65 (= x_79 x_66)) (?v_66 (= x_80 x_67)) (?v_69 (= x_81 x_68)) (?v_67 (not (<= x_68 x_66))) (?v_63 (= x_91 x_78)) (?v_60 (= x_92 x_79)) (?v_61 (= x_93 x_80)) (?v_64 (= x_94 x_81)) (?v_62 (not (<= x_81 x_79))) (?v_58 (= x_104 x_91)) (?v_55 (= x_105 x_92)) (?v_56 (= x_106 x_93)) (?v_59 (= x_107 x_94)) (?v_57 (not (<= x_94 x_92))) (?v_53 (= x_117 x_104)) (?v_50 (= x_118 x_105)) (?v_51 (= x_119 x_106)) (?v_54 (= x_120 x_107)) (?v_52 (not (<= x_107 x_105))) (?v_48 (= x_130 x_117)) (?v_45 (= x_131 x_118)) (?v_46 (= x_132 x_119)) (?v_49 (= x_133 x_120)) (?v_47 (not (<= x_120 x_118))) (?v_43 (= x_143 x_130)) (?v_40 (= x_144 x_131)) (?v_41 (= x_145 x_132)) (?v_44 (= x_146 x_133)) (?v_42 (not (<= x_133 x_131))) (?v_38 (= x_156 x_143)) (?v_35 (= x_157 x_144)) (?v_36 (= x_158 x_145)) (?v_39 (= x_159 x_146)) (?v_37 (not (<= x_146 x_144))) (?v_33 (= x_169 x_156)) (?v_30 (= x_170 x_157)) (?v_31 (= x_171 x_158)) (?v_34 (= x_172 x_159)) (?v_32 (not (<= x_159 x_157))) (?v_28 (= x_182 x_169)) (?v_25 (= x_183 x_170)) (?v_26 (= x_184 x_171)) (?v_29 (= x_185 x_172)) (?v_27 (not (<= x_172 x_170))) (?v_23 (= x_195 x_182)) (?v_20 (= x_196 x_183)) (?v_21 (= x_197 x_184)) (?v_24 (= x_198 x_185)) (?v_22 (not (<= x_185 x_183))) (?v_18 (= x_208 x_195)) (?v_15 (= x_209 x_196)) (?v_16 (= x_210 x_197)) (?v_19 (= x_211 x_198)) (?v_17 (not (<= x_198 x_196))) (?v_13 (= x_221 x_208)) (?v_10 (= x_222 x_209)) (?v_11 (= x_223 x_210)) (?v_14 (= x_224 x_211)) (?v_12 (not (<= x_211 x_209))) (?v_8 (= x_234 x_221)) (?v_5 (= x_235 x_222)) (?v_6 (= x_236 x_223)) (?v_9 (= x_237 x_224)) (?v_7 (not (<= x_224 x_222))) (?v_3 (= x_247 x_234)) (?v_0 (= x_248 x_235)) (?v_1 (= x_249 x_236)) (?v_4 (= x_250 x_237)) (?v_2 (not (<= x_237 x_235)))) (and (and (and (and (and (and (and (and (and (and (and (and (and (and (and (and (and (and (and (and (and (and (and (and (and (and (and (and (and (and (and (and (and (and (and (and (and (and (and (and (and (and (and (and (and (and (and (and (and (and (and (and (and (and (and (and (and (and (and (and (and (and (and (and (and (and (and (and (and (and (and (and (and (and (and (and (and (and (and (and (and (and (and (and (and (and (and (and (and (and (and (and (and (and (and (and (and (and (and (and (and (and (and (and (and (and (and (and (and (and (and (and (and (and (and (and (and (and (and (and (and (and (and (and (and (and (and (and (and (and (and (and (and (and (and (and (and (and (and (and (and (and (and (and (and (and (and (and (and (and (and (and (and (and (and (and (and (and (and (and (and (and (and (and (and (and (and (and (and (and (and (and (and (and (and (and (and (and (and (and (and (and (and (and (not (= x_2 x_1)) (= x_260 (select x_19 x_1))) (= x_261 (select x_19 x_2))) (or (not (= x_260 3)) (not (= x_261 3)))) (= x_262 (select x_18 x_1))) (= x_263 (select x_18 x_2))) (or (not (= x_262 3)) (not (= x_263 3)))) (= x_264 (select x_17 x_1))) (= x_265 (select x_17 x_2))) (or (not (= x_264 3)) (not (= x_265 3)))) (= x_266 (select x_16 x_1))) (= x_267 (select x_16 x_2))) (or (not (= x_266 3)) (not (= x_267 3)))) (= x_268 (select x_15 x_1))) (= x_269 (select x_15 x_2))) (or (not (= x_268 3)) (not (= x_269 3)))) (= x_270 (select x_14 x_1))) (= x_271 (select x_14 x_2))) (or (not (= x_270 3)) (not (= x_271 3)))) (= x_272 (select x_13 x_1))) (= x_273 (select x_13 x_2))) (or (not (= x_272 3)) (not (= x_273 3)))) (= x_274 (select x_12 x_1))) (= x_275 (select x_12 x_2))) (or (not (= x_274 3)) (not (= x_275 3)))) (= x_276 (select x_11 x_1))) (= x_277 (select x_11 x_2))) (or (not (= x_276 3)) (not (= x_277 3)))) (= x_278 (select x_10 x_1))) (= x_279 (select x_10 x_2))) (or (not (= x_278 3)) (not (= x_279 3)))) (= x_280 (select x_9 x_1))) (= x_281 (select x_9 x_2))) (or (not (= x_280 3)) (not (= x_281 3)))) (= x_282 (select x_8 x_1))) (= x_283 (select x_8 x_2))) (or (not (= x_282 3)) (not (= x_283 3)))) (= x_284 (select x_7 x_1))) (= x_285 (select x_7 x_2))) (or (not (= x_284 3)) (not (= x_285 3)))) (= x_286 (select x_6 x_1))) (= x_287 (select x_6 x_2))) (or (not (= x_286 3)) (not (= x_287 3)))) (= x_288 (select x_5 x_1))) (= x_289 (select x_5 x_2))) (or (not (= x_288 3)) (not (= x_289 3)))) (= x_290 (select x_4 x_1))) (= x_291 (select x_4 x_2))) (or (not (= x_290 3)) (not (= x_291 3)))) (= x_292 (select x_3 x_1))) (= x_293 (select x_3 x_2))) (or (not (= x_292 3)) (not (= x_293 3)))) (= x_294 (select x_0 x_1))) (= x_295 (select x_0 x_2))) (or (not (= x_294 3)) (not (= x_295 3)))) (= x_296 (select x_20 x_21))) (= x_22 x_296)) (= x_297 (select x_23 x_24))) (= x_38 x_297)) (= x_298 (select x_39 x_40))) (= x_51 x_298)) (= x_299 (select x_52 x_53))) (= x_64 x_299)) (= x_300 (select x_65 x_66))) (= x_77 x_300)) (= x_301 (select x_78 x_79))) (= x_90 x_301)) (= x_302 (select x_91 x_92))) (= x_103 x_302)) (= x_303 (select x_104 x_105))) (= x_116 x_303)) (= x_304 (select x_117 x_118))) (= x_129 x_304)) (= x_305 (select x_130 x_131))) (= x_142 x_305)) (= x_306 (select x_143 x_144))) (= x_155 x_306)) (= x_307 (select x_156 x_157))) (= x_168 x_307)) (= x_308 (select x_169 x_170))) (= x_181 x_308)) (= x_309 (select x_182 x_183))) (= x_194 x_309)) (= x_310 (select x_195 x_196))) (= x_207 x_310)) (= x_311 (select x_208 x_209))) (= x_220 x_311)) (= x_312 (select x_221 x_222))) (= x_233 x_312)) (= x_313 (select x_234 x_235))) (= x_246 x_313)) (= x_251 (+ x_238 1))) (= x_314 (select x_19 x_253))) (= x_315 (select x_19 x_256))) (= x_316 (select x_19 x_258))) (or (or (or (and (and (and (and (and (and (and (= x_252 0) (= x_250 (+ x_237 1))) ?v_0) ?v_1) (= x_254 x_253)) (= x_314 1)) (= x_255 (store x_19 x_253 2))) (= x_247 (store x_234 x_237 x_253))) (and (and (and (and (and (and (and (and (and (= x_252 1) ?v_2) ?v_0) ?v_1) ?v_3) ?v_4) (= x_257 x_256)) (= x_315 2)) (= x_246 x_256)) (= x_255 (store x_19 x_256 3)))) (and (and (and (and (and (and (and (and (and (= x_252 2) ?v_2) (= x_248 (+ x_235 1))) ?v_1) ?v_3) ?v_4) (= x_259 x_258)) (= x_316 3)) (or (not (<= x_238 12)) (= x_246 x_258))) (= x_255 (store x_19 x_258 1)))) (and (and (and (and (and (= x_252 3) ?v_3) ?v_0) ?v_1) (= x_255 x_19)) ?v_4))) (= x_238 (+ x_225 1))) (= x_317 (select x_18 x_240))) (= x_318 (select x_18 x_242))) (= x_319 (select x_18 x_244))) (or (or (or (and (and (and (and (and (and (and (= x_239 0) (= x_237 (+ x_224 1))) ?v_5) ?v_6) (= x_241 x_240)) (= x_317 1)) (= x_19 (store x_18 x_240 2))) (= x_234 (store x_221 x_224 x_240))) (and (and (and (and (and (and (and (and (and (= x_239 1) ?v_7) ?v_5) ?v_6) ?v_8) ?v_9) (= x_243 x_242)) (= x_318 2)) (= x_233 x_242)) (= x_19 (store x_18 x_242 3)))) (and (and (and (and (and (and (and (and (and (= x_239 2) ?v_7) (= x_235 (+ x_222 1))) ?v_6) ?v_8) ?v_9) (= x_245 x_244)) (= x_319 3)) (or (not (<= x_225 12)) (= x_233 x_244))) (= x_19 (store x_18 x_244 1)))) (and (and (and (and (and (= x_239 3) ?v_8) ?v_5) ?v_6) (= x_19 x_18)) ?v_9))) (= x_225 (+ x_212 1))) (= x_320 (select x_17 x_227))) (= x_321 (select x_17 x_229))) (= x_322 (select x_17 x_231))) (or (or (or (and (and (and (and (and (and (and (= x_226 0) (= x_224 (+ x_211 1))) ?v_10) ?v_11) (= x_228 x_227)) (= x_320 1)) (= x_18 (store x_17 x_227 2))) (= x_221 (store x_208 x_211 x_227))) (and (and (and (and (and (and (and (and (and (= x_226 1) ?v_12) ?v_10) ?v_11) ?v_13) ?v_14) (= x_230 x_229)) (= x_321 2)) (= x_220 x_229)) (= x_18 (store x_17 x_229 3)))) (and (and (and (and (and (and (and (and (and (= x_226 2) ?v_12) (= x_222 (+ x_209 1))) ?v_11) ?v_13) ?v_14) (= x_232 x_231)) (= x_322 3)) (or (not (<= x_212 12)) (= x_220 x_231))) (= x_18 (store x_17 x_231 1)))) (and (and (and (and (and (= x_226 3) ?v_13) ?v_10) ?v_11) (= x_18 x_17)) ?v_14))) (= x_212 (+ x_199 1))) (= x_323 (select x_16 x_214))) (= x_324 (select x_16 x_216))) (= x_325 (select x_16 x_218))) (or (or (or (and (and (and (and (and (and (and (= x_213 0) (= x_211 (+ x_198 1))) ?v_15) ?v_16) (= x_215 x_214)) (= x_323 1)) (= x_17 (store x_16 x_214 2))) (= x_208 (store x_195 x_198 x_214))) (and (and (and (and (and (and (and (and (and (= x_213 1) ?v_17) ?v_15) ?v_16) ?v_18) ?v_19) (= x_217 x_216)) (= x_324 2)) (= x_207 x_216)) (= x_17 (store x_16 x_216 3)))) (and (and (and (and (and (and (and (and (and (= x_213 2) ?v_17) (= x_209 (+ x_196 1))) ?v_16) ?v_18) ?v_19) (= x_219 x_218)) (= x_325 3)) (or (not (<= x_199 12)) (= x_207 x_218))) (= x_17 (store x_16 x_218 1)))) (and (and (and (and (and (= x_213 3) ?v_18) ?v_15) ?v_16) (= x_17 x_16)) ?v_19))) (= x_199 (+ x_186 1))) (= x_326 (select x_15 x_201))) (= x_327 (select x_15 x_203))) (= x_328 (select x_15 x_205))) (or (or (or (and (and (and (and (and (and (and (= x_200 0) (= x_198 (+ x_185 1))) ?v_20) ?v_21) (= x_202 x_201)) (= x_326 1)) (= x_16 (store x_15 x_201 2))) (= x_195 (store x_182 x_185 x_201))) (and (and (and (and (and (and (and (and (and (= x_200 1) ?v_22) ?v_20) ?v_21) ?v_23) ?v_24) (= x_204 x_203)) (= x_327 2)) (= x_194 x_203)) (= x_16 (store x_15 x_203 3)))) (and (and (and (and (and (and (and (and (and (= x_200 2) ?v_22) (= x_196 (+ x_183 1))) ?v_21) ?v_23) ?v_24) (= x_206 x_205)) (= x_328 3)) (or (not (<= x_186 12)) (= x_194 x_205))) (= x_16 (store x_15 x_205 1)))) (and (and (and (and (and (= x_200 3) ?v_23) ?v_20) ?v_21) (= x_16 x_15)) ?v_24))) (= x_186 (+ x_173 1))) (= x_329 (select x_14 x_188))) (= x_330 (select x_14 x_190))) (= x_331 (select x_14 x_192))) (or (or (or (and (and (and (and (and (and (and (= x_187 0) (= x_185 (+ x_172 1))) ?v_25) ?v_26) (= x_189 x_188)) (= x_329 1)) (= x_15 (store x_14 x_188 2))) (= x_182 (store x_169 x_172 x_188))) (and (and (and (and (and (and (and (and (and (= x_187 1) ?v_27) ?v_25) ?v_26) ?v_28) ?v_29) (= x_191 x_190)) (= x_330 2)) (= x_181 x_190)) (= x_15 (store x_14 x_190 3)))) (and (and (and (and (and (and (and (and (and (= x_187 2) ?v_27) (= x_183 (+ x_170 1))) ?v_26) ?v_28) ?v_29) (= x_193 x_192)) (= x_331 3)) (or (not (<= x_173 12)) (= x_181 x_192))) (= x_15 (store x_14 x_192 1)))) (and (and (and (and (and (= x_187 3) ?v_28) ?v_25) ?v_26) (= x_15 x_14)) ?v_29))) (= x_173 (+ x_160 1))) (= x_332 (select x_13 x_175))) (= x_333 (select x_13 x_177))) (= x_334 (select x_13 x_179))) (or (or (or (and (and (and (and (and (and (and (= x_174 0) (= x_172 (+ x_159 1))) ?v_30) ?v_31) (= x_176 x_175)) (= x_332 1)) (= x_14 (store x_13 x_175 2))) (= x_169 (store x_156 x_159 x_175))) (and (and (and (and (and (and (and (and (and (= x_174 1) ?v_32) ?v_30) ?v_31) ?v_33) ?v_34) (= x_178 x_177)) (= x_333 2)) (= x_168 x_177)) (= x_14 (store x_13 x_177 3)))) (and (and (and (and (and (and (and (and (and (= x_174 2) ?v_32) (= x_170 (+ x_157 1))) ?v_31) ?v_33) ?v_34) (= x_180 x_179)) (= x_334 3)) (or (not (<= x_160 12)) (= x_168 x_179))) (= x_14 (store x_13 x_179 1)))) (and (and (and (and (and (= x_174 3) ?v_33) ?v_30) ?v_31) (= x_14 x_13)) ?v_34))) (= x_160 (+ x_147 1))) (= x_335 (select x_12 x_162))) (= x_336 (select x_12 x_164))) (= x_337 (select x_12 x_166))) (or (or (or (and (and (and (and (and (and (and (= x_161 0) (= x_159 (+ x_146 1))) ?v_35) ?v_36) (= x_163 x_162)) (= x_335 1)) (= x_13 (store x_12 x_162 2))) (= x_156 (store x_143 x_146 x_162))) (and (and (and (and (and (and (and (and (and (= x_161 1) ?v_37) ?v_35) ?v_36) ?v_38) ?v_39) (= x_165 x_164)) (= x_336 2)) (= x_155 x_164)) (= x_13 (store x_12 x_164 3)))) (and (and (and (and (and (and (and (and (and (= x_161 2) ?v_37) (= x_157 (+ x_144 1))) ?v_36) ?v_38) ?v_39) (= x_167 x_166)) (= x_337 3)) (or (not (<= x_147 12)) (= x_155 x_166))) (= x_13 (store x_12 x_166 1)))) (and (and (and (and (and (= x_161 3) ?v_38) ?v_35) ?v_36) (= x_13 x_12)) ?v_39))) (= x_147 (+ x_134 1))) (= x_338 (select x_11 x_149))) (= x_339 (select x_11 x_151))) (= x_340 (select x_11 x_153))) (or (or (or (and (and (and (and (and (and (and (= x_148 0) (= x_146 (+ x_133 1))) ?v_40) ?v_41) (= x_150 x_149)) (= x_338 1)) (= x_12 (store x_11 x_149 2))) (= x_143 (store x_130 x_133 x_149))) (and (and (and (and (and (and (and (and (and (= x_148 1) ?v_42) ?v_40) ?v_41) ?v_43) ?v_44) (= x_152 x_151)) (= x_339 2)) (= x_142 x_151)) (= x_12 (store x_11 x_151 3)))) (and (and (and (and (and (and (and (and (and (= x_148 2) ?v_42) (= x_144 (+ x_131 1))) ?v_41) ?v_43) ?v_44) (= x_154 x_153)) (= x_340 3)) (or (not (<= x_134 12)) (= x_142 x_153))) (= x_12 (store x_11 x_153 1)))) (and (and (and (and (and (= x_148 3) ?v_43) ?v_40) ?v_41) (= x_12 x_11)) ?v_44))) (= x_134 (+ x_121 1))) (= x_341 (select x_10 x_136))) (= x_342 (select x_10 x_138))) (= x_343 (select x_10 x_140))) (or (or (or (and (and (and (and (and (and (and (= x_135 0) (= x_133 (+ x_120 1))) ?v_45) ?v_46) (= x_137 x_136)) (= x_341 1)) (= x_11 (store x_10 x_136 2))) (= x_130 (store x_117 x_120 x_136))) (and (and (and (and (and (and (and (and (and (= x_135 1) ?v_47) ?v_45) ?v_46) ?v_48) ?v_49) (= x_139 x_138)) (= x_342 2)) (= x_129 x_138)) (= x_11 (store x_10 x_138 3)))) (and (and (and (and (and (and (and (and (and (= x_135 2) ?v_47) (= x_131 (+ x_118 1))) ?v_46) ?v_48) ?v_49) (= x_141 x_140)) (= x_343 3)) (or (not (<= x_121 12)) (= x_129 x_140))) (= x_11 (store x_10 x_140 1)))) (and (and (and (and (and (= x_135 3) ?v_48) ?v_45) ?v_46) (= x_11 x_10)) ?v_49))) (= x_121 (+ x_108 1))) (= x_344 (select x_9 x_123))) (= x_345 (select x_9 x_125))) (= x_346 (select x_9 x_127))) (or (or (or (and (and (and (and (and (and (and (= x_122 0) (= x_120 (+ x_107 1))) ?v_50) ?v_51) (= x_124 x_123)) (= x_344 1)) (= x_10 (store x_9 x_123 2))) (= x_117 (store x_104 x_107 x_123))) (and (and (and (and (and (and (and (and (and (= x_122 1) ?v_52) ?v_50) ?v_51) ?v_53) ?v_54) (= x_126 x_125)) (= x_345 2)) (= x_116 x_125)) (= x_10 (store x_9 x_125 3)))) (and (and (and (and (and (and (and (and (and (= x_122 2) ?v_52) (= x_118 (+ x_105 1))) ?v_51) ?v_53) ?v_54) (= x_128 x_127)) (= x_346 3)) (or (not (<= x_108 12)) (= x_116 x_127))) (= x_10 (store x_9 x_127 1)))) (and (and (and (and (and (= x_122 3) ?v_53) ?v_50) ?v_51) (= x_10 x_9)) ?v_54))) (= x_108 (+ x_95 1))) (= x_347 (select x_8 x_110))) (= x_348 (select x_8 x_112))) (= x_349 (select x_8 x_114))) (or (or (or (and (and (and (and (and (and (and (= x_109 0) (= x_107 (+ x_94 1))) ?v_55) ?v_56) (= x_111 x_110)) (= x_347 1)) (= x_9 (store x_8 x_110 2))) (= x_104 (store x_91 x_94 x_110))) (and (and (and (and (and (and (and (and (and (= x_109 1) ?v_57) ?v_55) ?v_56) ?v_58) ?v_59) (= x_113 x_112)) (= x_348 2)) (= x_103 x_112)) (= x_9 (store x_8 x_112 3)))) (and (and (and (and (and (and (and (and (and (= x_109 2) ?v_57) (= x_105 (+ x_92 1))) ?v_56) ?v_58) ?v_59) (= x_115 x_114)) (= x_349 3)) (or (not (<= x_95 12)) (= x_103 x_114))) (= x_9 (store x_8 x_114 1)))) (and (and (and (and (and (= x_109 3) ?v_58) ?v_55) ?v_56) (= x_9 x_8)) ?v_59))) (= x_95 (+ x_82 1))) (= x_350 (select x_7 x_97))) (= x_351 (select x_7 x_99))) (= x_352 (select x_7 x_101))) (or (or (or (and (and (and (and (and (and (and (= x_96 0) (= x_94 (+ x_81 1))) ?v_60) ?v_61) (= x_98 x_97)) (= x_350 1)) (= x_8 (store x_7 x_97 2))) (= x_91 (store x_78 x_81 x_97))) (and (and (and (and (and (and (and (and (and (= x_96 1) ?v_62) ?v_60) ?v_61) ?v_63) ?v_64) (= x_100 x_99)) (= x_351 2)) (= x_90 x_99)) (= x_8 (store x_7 x_99 3)))) (and (and (and (and (and (and (and (and (and (= x_96 2) ?v_62) (= x_92 (+ x_79 1))) ?v_61) ?v_63) ?v_64) (= x_102 x_101)) (= x_352 3)) (or (not (<= x_82 12)) (= x_90 x_101))) (= x_8 (store x_7 x_101 1)))) (and (and (and (and (and (= x_96 3) ?v_63) ?v_60) ?v_61) (= x_8 x_7)) ?v_64))) (= x_82 (+ x_69 1))) (= x_353 (select x_6 x_84))) (= x_354 (select x_6 x_86))) (= x_355 (select x_6 x_88))) (or (or (or (and (and (and (and (and (and (and (= x_83 0) (= x_81 (+ x_68 1))) ?v_65) ?v_66) (= x_85 x_84)) (= x_353 1)) (= x_7 (store x_6 x_84 2))) (= x_78 (store x_65 x_68 x_84))) (and (and (and (and (and (and (and (and (and (= x_83 1) ?v_67) ?v_65) ?v_66) ?v_68) ?v_69) (= x_87 x_86)) (= x_354 2)) (= x_77 x_86)) (= x_7 (store x_6 x_86 3)))) (and (and (and (and (and (and (and (and (and (= x_83 2) ?v_67) (= x_79 (+ x_66 1))) ?v_66) ?v_68) ?v_69) (= x_89 x_88)) (= x_355 3)) (or (not (<= x_69 12)) (= x_77 x_88))) (= x_7 (store x_6 x_88 1)))) (and (and (and (and (and (= x_83 3) ?v_68) ?v_65) ?v_66) (= x_7 x_6)) ?v_69))) (= x_69 (+ x_56 1))) (= x_356 (select x_5 x_71))) (= x_357 (select x_5 x_73))) (= x_358 (select x_5 x_75))) (or (or (or (and (and (and (and (and (and (and (= x_70 0) (= x_68 (+ x_55 1))) ?v_70) ?v_71) (= x_72 x_71)) (= x_356 1)) (= x_6 (store x_5 x_71 2))) (= x_65 (store x_52 x_55 x_71))) (and (and (and (and (and (and (and (and (and (= x_70 1) ?v_72) ?v_70) ?v_71) ?v_73) ?v_74) (= x_74 x_73)) (= x_357 2)) (= x_64 x_73)) (= x_6 (store x_5 x_73 3)))) (and (and (and (and (and (and (and (and (and (= x_70 2) ?v_72) (= x_66 (+ x_53 1))) ?v_71) ?v_73) ?v_74) (= x_76 x_75)) (= x_358 3)) (or (not (<= x_56 12)) (= x_64 x_75))) (= x_6 (store x_5 x_75 1)))) (and (and (and (and (and (= x_70 3) ?v_73) ?v_70) ?v_71) (= x_6 x_5)) ?v_74))) (= x_56 (+ x_43 1))) (= x_359 (select x_4 x_58))) (= x_360 (select x_4 x_60))) (= x_361 (select x_4 x_62))) (or (or (or (and (and (and (and (and (and (and (= x_57 0) (= x_55 (+ x_42 1))) ?v_75) ?v_76) (= x_59 x_58)) (= x_359 1)) (= x_5 (store x_4 x_58 2))) (= x_52 (store x_39 x_42 x_58))) (and (and (and (and (and (and (and (and (and (= x_57 1) ?v_77) ?v_75) ?v_76) ?v_78) ?v_79) (= x_61 x_60)) (= x_360 2)) (= x_51 x_60)) (= x_5 (store x_4 x_60 3)))) (and (and (and (and (and (and (and (and (and (= x_57 2) ?v_77) (= x_53 (+ x_40 1))) ?v_76) ?v_78) ?v_79) (= x_63 x_62)) (= x_361 3)) (or (not (<= x_43 12)) (= x_51 x_62))) (= x_5 (store x_4 x_62 1)))) (and (and (and (and (and (= x_57 3) ?v_78) ?v_75) ?v_76) (= x_5 x_4)) ?v_79))) (= x_43 (+ x_29 1))) (= x_362 (select x_3 x_45))) (= x_363 (select x_3 x_47))) (= x_364 (select x_3 x_49))) (or (or (or (and (and (and (and (and (and (and (= x_44 0) (= x_42 (+ x_27 1))) ?v_80) ?v_81) (= x_46 x_45)) (= x_362 1)) (= x_4 (store x_3 x_45 2))) (= x_39 (store x_23 x_27 x_45))) (and (and (and (and (and (and (and (and (and (= x_44 1) ?v_82) ?v_80) ?v_81) ?v_83) ?v_84) (= x_48 x_47)) (= x_363 2)) (= x_38 x_47)) (= x_4 (store x_3 x_47 3)))) (and (and (and (and (and (and (and (and (and (= x_44 2) ?v_82) (= x_40 (+ x_24 1))) ?v_81) ?v_83) ?v_84) (= x_50 x_49)) (= x_364 3)) (or (not (<= x_29 12)) (= x_38 x_49))) (= x_4 (store x_3 x_49 1)))) (and (and (and (and (and (= x_44 3) ?v_83) ?v_80) ?v_81) (= x_4 x_3)) ?v_84))) (= x_29 (+ x_30 1))) (= x_365 (select x_0 x_32))) (= x_366 (select x_0 x_34))) (= x_367 (select x_0 x_36))) (or (or (or (and (and (and (and (and (and (and (= x_31 0) (= x_27 (+ x_28 1))) ?v_85) ?v_86) (= x_33 x_32)) (= x_365 1)) (= x_3 (store x_0 x_32 2))) (= x_23 (store x_20 x_28 x_32))) (and (and (and (and (and (and (and (and (and (= x_31 1) ?v_87) ?v_85) ?v_86) ?v_88) ?v_89) (= x_35 x_34)) (= x_366 2)) (= x_22 x_34)) (= x_3 (store x_0 x_34 3)))) (and (and (and (and (and (and (and (and (and (= x_31 2) ?v_87) (= x_24 (+ x_21 1))) ?v_86) ?v_88) ?v_89) (= x_37 x_36)) (= x_367 3)) (or (not (<= x_30 12)) (= x_22 x_36))) (= x_3 (store x_0 x_36 1)))) (and (and (and (and (and (= x_31 3) ?v_88) ?v_85) ?v_86) (= x_3 x_0)) ?v_89))) (= x_368 (select x_255 x_1))) (= x_368 3)) (= x_369 (select x_255 x_2))) (= x_369 3))))
; --- Injected Array Sum Constraint ---
(assert (sum x_0 (+ x_283 (+ x_138 x_174))))
(check-sat)
(exit)